letting initialStacks = [42, 35, 40, 2, 44, 39, 32, 29, 22, 10, 17, 47, 51, 9, 6, 3, 15, 19, 48, 25, 18, 23, 46, 24, 21, 38, 5, 11, 28, 13, 27, 20, 12, 43, 31, 16, 37, 26, 50, 7, 4, 41, 14, 8, 45, 1, 30, 33, 34, 49, 36]
